; benchmark generated from python API
(set-info :status unknown)
(declare-fun x_epoch () Int)
(declare-fun y_epoch () Int)
(declare-fun x_plus_epoch () Int)
(declare-fun x_plus_month () Int)
(declare-fun x_plus_year () Int)
(declare-fun x_plus_day () Int)
(declare-fun x_plus_plus_epoch () Int)
(assert
 (>= x_epoch (- 36584)))
(assert
 (<= x_epoch 36829))
(assert
 (>= y_epoch (- 36584)))
(assert
 (<= y_epoch 36829))
(assert
 (>= x_epoch 8492))
(assert
 (>= x_plus_epoch (- 36584)))
(assert
 (<= x_plus_epoch 36829))
(assert
 (let (($x755 (= x_plus_month 11)))
 (let (($x3429 (= x_plus_month 9)))
 (let (($x500 (= x_plus_month 6)))
 (let (($x848 (= x_plus_month 4)))
 (let ((?x1138 (ite (or $x848 $x500 $x3429 $x755) 30 31)))
 (let (($x1574 (= (mod x_plus_year 400) 0)))
 (let (($x646 (= (mod x_plus_year 4) 0)))
 (let (($x3305 (or (and $x646 (and (distinct (mod x_plus_year 100) 0) true)) $x1574)))
 (let (($x654 (= x_plus_month 2)))
 (let (($x395 (>= x_plus_day 1)))
 (let (($x2091 (<= x_plus_month 12)))
 (let (($x717 (>= x_plus_month 1)))
 (let (($x3667 (<= x_plus_year 2100)))
 (let (($x3431 (>= x_plus_year 1900)))
 (and $x3431 $x3667 $x717 $x2091 $x395 (<= x_plus_day (ite $x654 (ite $x3305 29 28) ?x1138))))))))))))))))))
(assert
 (let (($x1574 (= (mod x_plus_year 400) 0)))
 (let (($x646 (= (mod x_plus_year 4) 0)))
 (let (($x3305 (or (and $x646 (and (distinct (mod x_plus_year 100) 0) true)) $x1574)))
 (let (($x3042 (= 2 x_plus_month)))
 (let ((?x1543 (ite $x3042 (ite $x3305 31 31) (ite (= 1 x_plus_month) (ite $x3305 0 0) 0))))
 (let (($x3335 (= 3 x_plus_month)))
 (let (($x857 (= 4 x_plus_month)))
 (let ((?x738 (ite $x857 (ite $x3305 91 90) (ite $x3335 (ite $x3305 60 59) ?x1543))))
 (let (($x3012 (= 5 x_plus_month)))
 (let (($x387 (= 6 x_plus_month)))
 (let ((?x602 (ite $x387 (ite $x3305 152 151) (ite $x3012 (ite $x3305 121 120) ?x738))))
 (let (($x417 (= 7 x_plus_month)))
 (let (($x2697 (= 8 x_plus_month)))
 (let ((?x631 (ite $x2697 (ite $x3305 213 212) (ite $x417 (ite $x3305 182 181) ?x602))))
 (let (($x700 (= 9 x_plus_month)))
 (let (($x699 (= 10 x_plus_month)))
 (let ((?x307 (ite $x699 (ite $x3305 274 273) (ite $x700 (ite $x3305 244 243) ?x631))))
 (let (($x406 (= 11 x_plus_month)))
 (let (($x1958 (= 12 x_plus_month)))
 (let ((?x2955 (ite $x1958 (ite $x3305 335 334) (ite $x406 (ite $x3305 305 304) ?x307))))
 (let ((?x665 (+ (* 365 (- x_plus_year 1)) (div (- x_plus_year 1) 4))))
 (let ((?x869 (+ (- ?x665 (div (- x_plus_year 1) 100)) (div (- x_plus_year 1) 400))))
 (= x_plus_epoch (- (+ (+ ?x869 ?x2955) (- x_plus_day 1)) 730179)))))))))))))))))))))))))
(assert
 (let ((?x530 (+ x_epoch 730179)))
 (let ((?x467 (mod ?x530 146097)))
 (let ((?x880 (div ?x467 36524)))
 (let ((?x518 (ite (<= 4 ?x880) 3 ?x880)))
 (let ((?x910 (- ?x467 (* ?x518 36524))))
 (let ((?x696 (mod ?x910 1461)))
 (let ((?x1371 (div ?x696 365)))
 (let ((?x2869 (ite (<= 4 ?x1371) 3 ?x1371)))
 (let ((?x3403 (+ (+ (* (div ?x530 146097) 400) (* ?x518 100)) (* (div ?x910 1461) 4))))
 (let ((?x1737 (+ (+ ?x3403 ?x2869) 1)))
 (let (($x1481 (or (and (= (mod ?x1737 4) 0) (and (distinct (mod ?x1737 100) 0) true)) (= (mod ?x1737 400) 0))))
 (let ((?x2810 (- ?x696 (* ?x2869 365))))
 (let ((?x2280 (ite $x1481 31 31)))
 (let (($x496 (>= ?x2810 ?x2280)))
 (let ((?x1283 (ite $x496 (+ (- ?x2810 ?x2280) 1) (+ (- ?x2810 (ite $x1481 0 0)) 1))))
 (let ((?x2531 (ite $x1481 60 59)))
 (let (($x734 (>= ?x2810 ?x2531)))
 (let ((?x3278 (ite $x1481 91 90)))
 (let (($x964 (>= ?x2810 ?x3278)))
 (let ((?x2351 (ite $x964 (+ (- ?x2810 ?x3278) 1) (ite $x734 (+ (- ?x2810 ?x2531) 1) ?x1283))))
 (let ((?x2005 (ite $x1481 121 120)))
 (let (($x1949 (>= ?x2810 ?x2005)))
 (let ((?x1778 (ite $x1481 152 151)))
 (let (($x1430 (>= ?x2810 ?x1778)))
 (let ((?x653 (ite $x1430 (+ (- ?x2810 ?x1778) 1) (ite $x1949 (+ (- ?x2810 ?x2005) 1) ?x2351))))
 (let ((?x1947 (ite $x1481 182 181)))
 (let (($x220 (>= ?x2810 ?x1947)))
 (let ((?x2213 (ite $x1481 213 212)))
 (let (($x297 (>= ?x2810 ?x2213)))
 (let ((?x889 (ite $x297 (+ (- ?x2810 ?x2213) 1) (ite $x220 (+ (- ?x2810 ?x1947) 1) ?x653))))
 (let ((?x350 (ite $x1481 244 243)))
 (let (($x750 (>= ?x2810 ?x350)))
 (let ((?x620 (ite $x1481 274 273)))
 (let (($x865 (>= ?x2810 ?x620)))
 (let ((?x705 (ite $x865 (+ (- ?x2810 ?x620) 1) (ite $x750 (+ (- ?x2810 ?x350) 1) ?x889))))
 (let ((?x494 (ite $x1481 305 304)))
 (let (($x466 (>= ?x2810 ?x494)))
 (let ((?x641 (ite $x1481 335 334)))
 (let (($x783 (>= ?x2810 ?x641)))
 (let ((?x732 (ite $x783 (+ (- ?x2810 ?x641) 1) (ite $x466 (+ (- ?x2810 ?x494) 1) ?x705))))
 (let ((?x587 (+ (* 0 12) 1)))
 (let ((?x780 (ite $x1949 5 (ite $x964 4 (ite $x734 3 (ite $x496 2 1))))))
 (let ((?x529 (ite $x750 9 (ite $x297 8 (ite $x220 7 (ite $x1430 6 ?x780))))))
 (let ((?x521 (ite $x783 12 (ite $x466 11 (ite $x865 10 ?x529)))))
 (let ((?x525 (+ ?x521 ?x587)))
 (let ((?x659 (- ?x525 1)))
 (let ((?x2919 (+ (mod ?x659 12) 1)))
 (let ((?x276 (ite (or (= ?x2919 4) (= ?x2919 6) (= ?x2919 9) (= ?x2919 11)) 30 31)))
 (let (($x225 (and (= (mod (+ ?x1737 (+ 0 (div ?x659 12))) 4) 0) (and (distinct (mod (+ ?x1737 (+ 0 (div ?x659 12))) 100) 0) true))))
 (let (($x456 (or $x225 (= (mod (+ ?x1737 (+ 0 (div ?x659 12))) 400) 0))))
 (let ((?x465 (ite (= ?x2919 2) (ite $x456 29 28) ?x276)))
 (let (($x881 (> 1 ?x732)))
 (let ((?x536 (ite $x881 1 (ite (> ?x732 ?x465) ?x465 ?x732))))
 (let ((?x3299 (ite (> 1 ?x536) 1 (ite (> ?x536 ?x465) ?x465 ?x536))))
 (let ((?x632 (ite (= 2 ?x2919) (ite $x456 31 31) (ite (= 1 ?x2919) (ite $x456 0 0) 0))))
 (let ((?x1219 (ite (= 4 ?x2919) (ite $x456 91 90) (ite (= 3 ?x2919) (ite $x456 60 59) ?x632))))
 (let ((?x448 (ite (= 6 ?x2919) (ite $x456 152 151) (ite (= 5 ?x2919) (ite $x456 121 120) ?x1219))))
 (let ((?x3066 (ite (= 8 ?x2919) (ite $x456 213 212) (ite (= 7 ?x2919) (ite $x456 182 181) ?x448))))
 (let ((?x613 (ite (= 10 ?x2919) (ite $x456 274 273) (ite (= 9 ?x2919) (ite $x456 244 243) ?x3066))))
 (let ((?x781 (ite (= 12 ?x2919) (ite $x456 335 334) (ite (= 11 ?x2919) (ite $x456 305 304) ?x613))))
 (let ((?x867 (+ (* 365 (- (+ ?x1737 (+ 0 (div ?x659 12))) 1)) (div (- (+ ?x1737 (+ 0 (div ?x659 12))) 1) 4))))
 (let ((?x563 (+ (- ?x867 (div (- (+ ?x1737 (+ 0 (div ?x659 12))) 1) 100)) (div (- (+ ?x1737 (+ 0 (div ?x659 12))) 1) 400))))
 (let ((?x790 (+ (+ (- (+ (+ ?x563 ?x781) (- ?x3299 1)) 730179) 0) 730179)))
 (let ((?x385 (mod ?x790 146097)))
 (let ((?x1477 (div ?x385 36524)))
 (let ((?x772 (ite (<= 4 ?x1477) 3 ?x1477)))
 (let ((?x650 (- ?x385 (* ?x772 36524))))
 (let ((?x615 (mod ?x650 1461)))
 (let ((?x454 (div ?x615 365)))
 (let ((?x3364 (ite (<= 4 ?x454) 3 ?x454)))
 (let ((?x688 (+ (+ (* (div ?x790 146097) 400) (* ?x772 100)) (* (div ?x650 1461) 4))))
 (let ((?x3086 (+ (+ ?x688 ?x3364) 1)))
 (let ((?x347 (+ 0 (div ?x659 12))))
 (let ((?x405 (+ ?x1737 ?x347)))
 (let (($x879 (= 0 0)))
 (let ((?x2580 (ite $x879 ?x405 ?x3086)))
 (= x_plus_year ?x2580))))))))))))))))))))))))))))))))))))))))))))))))))))))))))))))))))))))))))))))
(assert
 (let ((?x530 (+ x_epoch 730179)))
 (let ((?x467 (mod ?x530 146097)))
 (let ((?x880 (div ?x467 36524)))
 (let ((?x518 (ite (<= 4 ?x880) 3 ?x880)))
 (let ((?x910 (- ?x467 (* ?x518 36524))))
 (let ((?x696 (mod ?x910 1461)))
 (let ((?x1371 (div ?x696 365)))
 (let ((?x2869 (ite (<= 4 ?x1371) 3 ?x1371)))
 (let ((?x3403 (+ (+ (* (div ?x530 146097) 400) (* ?x518 100)) (* (div ?x910 1461) 4))))
 (let ((?x1737 (+ (+ ?x3403 ?x2869) 1)))
 (let (($x1481 (or (and (= (mod ?x1737 4) 0) (and (distinct (mod ?x1737 100) 0) true)) (= (mod ?x1737 400) 0))))
 (let ((?x2810 (- ?x696 (* ?x2869 365))))
 (let ((?x2280 (ite $x1481 31 31)))
 (let (($x496 (>= ?x2810 ?x2280)))
 (let ((?x1283 (ite $x496 (+ (- ?x2810 ?x2280) 1) (+ (- ?x2810 (ite $x1481 0 0)) 1))))
 (let ((?x2531 (ite $x1481 60 59)))
 (let (($x734 (>= ?x2810 ?x2531)))
 (let ((?x3278 (ite $x1481 91 90)))
 (let (($x964 (>= ?x2810 ?x3278)))
 (let ((?x2351 (ite $x964 (+ (- ?x2810 ?x3278) 1) (ite $x734 (+ (- ?x2810 ?x2531) 1) ?x1283))))
 (let ((?x2005 (ite $x1481 121 120)))
 (let (($x1949 (>= ?x2810 ?x2005)))
 (let ((?x1778 (ite $x1481 152 151)))
 (let (($x1430 (>= ?x2810 ?x1778)))
 (let ((?x653 (ite $x1430 (+ (- ?x2810 ?x1778) 1) (ite $x1949 (+ (- ?x2810 ?x2005) 1) ?x2351))))
 (let ((?x1947 (ite $x1481 182 181)))
 (let (($x220 (>= ?x2810 ?x1947)))
 (let ((?x2213 (ite $x1481 213 212)))
 (let (($x297 (>= ?x2810 ?x2213)))
 (let ((?x889 (ite $x297 (+ (- ?x2810 ?x2213) 1) (ite $x220 (+ (- ?x2810 ?x1947) 1) ?x653))))
 (let ((?x350 (ite $x1481 244 243)))
 (let (($x750 (>= ?x2810 ?x350)))
 (let ((?x620 (ite $x1481 274 273)))
 (let (($x865 (>= ?x2810 ?x620)))
 (let ((?x705 (ite $x865 (+ (- ?x2810 ?x620) 1) (ite $x750 (+ (- ?x2810 ?x350) 1) ?x889))))
 (let ((?x494 (ite $x1481 305 304)))
 (let (($x466 (>= ?x2810 ?x494)))
 (let ((?x641 (ite $x1481 335 334)))
 (let (($x783 (>= ?x2810 ?x641)))
 (let ((?x732 (ite $x783 (+ (- ?x2810 ?x641) 1) (ite $x466 (+ (- ?x2810 ?x494) 1) ?x705))))
 (let ((?x587 (+ (* 0 12) 1)))
 (let ((?x780 (ite $x1949 5 (ite $x964 4 (ite $x734 3 (ite $x496 2 1))))))
 (let ((?x529 (ite $x750 9 (ite $x297 8 (ite $x220 7 (ite $x1430 6 ?x780))))))
 (let ((?x521 (ite $x783 12 (ite $x466 11 (ite $x865 10 ?x529)))))
 (let ((?x525 (+ ?x521 ?x587)))
 (let ((?x659 (- ?x525 1)))
 (let ((?x2919 (+ (mod ?x659 12) 1)))
 (let ((?x276 (ite (or (= ?x2919 4) (= ?x2919 6) (= ?x2919 9) (= ?x2919 11)) 30 31)))
 (let (($x225 (and (= (mod (+ ?x1737 (+ 0 (div ?x659 12))) 4) 0) (and (distinct (mod (+ ?x1737 (+ 0 (div ?x659 12))) 100) 0) true))))
 (let (($x456 (or $x225 (= (mod (+ ?x1737 (+ 0 (div ?x659 12))) 400) 0))))
 (let ((?x465 (ite (= ?x2919 2) (ite $x456 29 28) ?x276)))
 (let (($x881 (> 1 ?x732)))
 (let ((?x536 (ite $x881 1 (ite (> ?x732 ?x465) ?x465 ?x732))))
 (let ((?x3299 (ite (> 1 ?x536) 1 (ite (> ?x536 ?x465) ?x465 ?x536))))
 (let ((?x632 (ite (= 2 ?x2919) (ite $x456 31 31) (ite (= 1 ?x2919) (ite $x456 0 0) 0))))
 (let ((?x1219 (ite (= 4 ?x2919) (ite $x456 91 90) (ite (= 3 ?x2919) (ite $x456 60 59) ?x632))))
 (let ((?x448 (ite (= 6 ?x2919) (ite $x456 152 151) (ite (= 5 ?x2919) (ite $x456 121 120) ?x1219))))
 (let ((?x3066 (ite (= 8 ?x2919) (ite $x456 213 212) (ite (= 7 ?x2919) (ite $x456 182 181) ?x448))))
 (let ((?x613 (ite (= 10 ?x2919) (ite $x456 274 273) (ite (= 9 ?x2919) (ite $x456 244 243) ?x3066))))
 (let ((?x781 (ite (= 12 ?x2919) (ite $x456 335 334) (ite (= 11 ?x2919) (ite $x456 305 304) ?x613))))
 (let ((?x867 (+ (* 365 (- (+ ?x1737 (+ 0 (div ?x659 12))) 1)) (div (- (+ ?x1737 (+ 0 (div ?x659 12))) 1) 4))))
 (let ((?x563 (+ (- ?x867 (div (- (+ ?x1737 (+ 0 (div ?x659 12))) 1) 100)) (div (- (+ ?x1737 (+ 0 (div ?x659 12))) 1) 400))))
 (let ((?x790 (+ (+ (- (+ (+ ?x563 ?x781) (- ?x3299 1)) 730179) 0) 730179)))
 (let ((?x385 (mod ?x790 146097)))
 (let ((?x1477 (div ?x385 36524)))
 (let ((?x772 (ite (<= 4 ?x1477) 3 ?x1477)))
 (let ((?x650 (- ?x385 (* ?x772 36524))))
 (let ((?x615 (mod ?x650 1461)))
 (let ((?x454 (div ?x615 365)))
 (let ((?x3364 (ite (<= 4 ?x454) 3 ?x454)))
 (let ((?x688 (+ (+ (* (div ?x790 146097) 400) (* ?x772 100)) (* (div ?x650 1461) 4))))
 (let ((?x3086 (+ (+ ?x688 ?x3364) 1)))
 (let (($x837 (or (and (= (mod ?x3086 4) 0) (and (distinct (mod ?x3086 100) 0) true)) (= (mod ?x3086 400) 0))))
 (let ((?x1118 (ite $x837 31 31)))
 (let ((?x685 (- ?x615 (* ?x3364 365))))
 (let (($x3419 (>= ?x685 ?x1118)))
 (let ((?x737 (ite $x837 60 59)))
 (let (($x3393 (>= ?x685 ?x737)))
 (let ((?x830 (ite $x837 91 90)))
 (let (($x348 (>= ?x685 ?x830)))
 (let ((?x1807 (ite $x837 121 120)))
 (let (($x723 (>= ?x685 ?x1807)))
 (let ((?x815 (ite $x723 5 (ite $x348 4 (ite $x3393 3 (ite $x3419 2 1))))))
 (let ((?x242 (ite $x837 152 151)))
 (let (($x3669 (>= ?x685 ?x242)))
 (let ((?x919 (ite $x837 182 181)))
 (let (($x481 (>= ?x685 ?x919)))
 (let ((?x281 (ite $x837 213 212)))
 (let (($x438 (>= ?x685 ?x281)))
 (let ((?x564 (ite $x837 244 243)))
 (let (($x3670 (>= ?x685 ?x564)))
 (let ((?x761 (ite $x3670 9 (ite $x438 8 (ite $x481 7 (ite $x3669 6 ?x815))))))
 (let ((?x404 (ite $x837 274 273)))
 (let (($x1429 (>= ?x685 ?x404)))
 (let ((?x576 (ite $x837 305 304)))
 (let (($x840 (>= ?x685 ?x576)))
 (let ((?x1078 (ite $x837 335 334)))
 (let (($x637 (>= ?x685 ?x1078)))
 (let (($x879 (= 0 0)))
 (let ((?x922 (ite $x879 ?x2919 (ite $x637 12 (ite $x840 11 (ite $x1429 10 ?x761))))))
 (= x_plus_month ?x922))))))))))))))))))))))))))))))))))))))))))))))))))))))))))))))))))))))))))))))))))))))))))))))))))))))
(assert
 (let ((?x530 (+ x_epoch 730179)))
 (let ((?x467 (mod ?x530 146097)))
 (let ((?x880 (div ?x467 36524)))
 (let ((?x518 (ite (<= 4 ?x880) 3 ?x880)))
 (let ((?x910 (- ?x467 (* ?x518 36524))))
 (let ((?x696 (mod ?x910 1461)))
 (let ((?x1371 (div ?x696 365)))
 (let ((?x2869 (ite (<= 4 ?x1371) 3 ?x1371)))
 (let ((?x3403 (+ (+ (* (div ?x530 146097) 400) (* ?x518 100)) (* (div ?x910 1461) 4))))
 (let ((?x1737 (+ (+ ?x3403 ?x2869) 1)))
 (let (($x1481 (or (and (= (mod ?x1737 4) 0) (and (distinct (mod ?x1737 100) 0) true)) (= (mod ?x1737 400) 0))))
 (let ((?x2810 (- ?x696 (* ?x2869 365))))
 (let ((?x2280 (ite $x1481 31 31)))
 (let (($x496 (>= ?x2810 ?x2280)))
 (let ((?x1283 (ite $x496 (+ (- ?x2810 ?x2280) 1) (+ (- ?x2810 (ite $x1481 0 0)) 1))))
 (let ((?x2531 (ite $x1481 60 59)))
 (let (($x734 (>= ?x2810 ?x2531)))
 (let ((?x3278 (ite $x1481 91 90)))
 (let (($x964 (>= ?x2810 ?x3278)))
 (let ((?x2351 (ite $x964 (+ (- ?x2810 ?x3278) 1) (ite $x734 (+ (- ?x2810 ?x2531) 1) ?x1283))))
 (let ((?x2005 (ite $x1481 121 120)))
 (let (($x1949 (>= ?x2810 ?x2005)))
 (let ((?x1778 (ite $x1481 152 151)))
 (let (($x1430 (>= ?x2810 ?x1778)))
 (let ((?x653 (ite $x1430 (+ (- ?x2810 ?x1778) 1) (ite $x1949 (+ (- ?x2810 ?x2005) 1) ?x2351))))
 (let ((?x1947 (ite $x1481 182 181)))
 (let (($x220 (>= ?x2810 ?x1947)))
 (let ((?x2213 (ite $x1481 213 212)))
 (let (($x297 (>= ?x2810 ?x2213)))
 (let ((?x889 (ite $x297 (+ (- ?x2810 ?x2213) 1) (ite $x220 (+ (- ?x2810 ?x1947) 1) ?x653))))
 (let ((?x350 (ite $x1481 244 243)))
 (let (($x750 (>= ?x2810 ?x350)))
 (let ((?x620 (ite $x1481 274 273)))
 (let (($x865 (>= ?x2810 ?x620)))
 (let ((?x705 (ite $x865 (+ (- ?x2810 ?x620) 1) (ite $x750 (+ (- ?x2810 ?x350) 1) ?x889))))
 (let ((?x494 (ite $x1481 305 304)))
 (let (($x466 (>= ?x2810 ?x494)))
 (let ((?x641 (ite $x1481 335 334)))
 (let (($x783 (>= ?x2810 ?x641)))
 (let ((?x732 (ite $x783 (+ (- ?x2810 ?x641) 1) (ite $x466 (+ (- ?x2810 ?x494) 1) ?x705))))
 (let ((?x587 (+ (* 0 12) 1)))
 (let ((?x780 (ite $x1949 5 (ite $x964 4 (ite $x734 3 (ite $x496 2 1))))))
 (let ((?x529 (ite $x750 9 (ite $x297 8 (ite $x220 7 (ite $x1430 6 ?x780))))))
 (let ((?x521 (ite $x783 12 (ite $x466 11 (ite $x865 10 ?x529)))))
 (let ((?x525 (+ ?x521 ?x587)))
 (let ((?x659 (- ?x525 1)))
 (let ((?x2919 (+ (mod ?x659 12) 1)))
 (let ((?x276 (ite (or (= ?x2919 4) (= ?x2919 6) (= ?x2919 9) (= ?x2919 11)) 30 31)))
 (let (($x225 (and (= (mod (+ ?x1737 (+ 0 (div ?x659 12))) 4) 0) (and (distinct (mod (+ ?x1737 (+ 0 (div ?x659 12))) 100) 0) true))))
 (let (($x456 (or $x225 (= (mod (+ ?x1737 (+ 0 (div ?x659 12))) 400) 0))))
 (let ((?x465 (ite (= ?x2919 2) (ite $x456 29 28) ?x276)))
 (let (($x881 (> 1 ?x732)))
 (let ((?x536 (ite $x881 1 (ite (> ?x732 ?x465) ?x465 ?x732))))
 (let ((?x3299 (ite (> 1 ?x536) 1 (ite (> ?x536 ?x465) ?x465 ?x536))))
 (let ((?x632 (ite (= 2 ?x2919) (ite $x456 31 31) (ite (= 1 ?x2919) (ite $x456 0 0) 0))))
 (let ((?x1219 (ite (= 4 ?x2919) (ite $x456 91 90) (ite (= 3 ?x2919) (ite $x456 60 59) ?x632))))
 (let ((?x448 (ite (= 6 ?x2919) (ite $x456 152 151) (ite (= 5 ?x2919) (ite $x456 121 120) ?x1219))))
 (let ((?x3066 (ite (= 8 ?x2919) (ite $x456 213 212) (ite (= 7 ?x2919) (ite $x456 182 181) ?x448))))
 (let ((?x613 (ite (= 10 ?x2919) (ite $x456 274 273) (ite (= 9 ?x2919) (ite $x456 244 243) ?x3066))))
 (let ((?x781 (ite (= 12 ?x2919) (ite $x456 335 334) (ite (= 11 ?x2919) (ite $x456 305 304) ?x613))))
 (let ((?x867 (+ (* 365 (- (+ ?x1737 (+ 0 (div ?x659 12))) 1)) (div (- (+ ?x1737 (+ 0 (div ?x659 12))) 1) 4))))
 (let ((?x563 (+ (- ?x867 (div (- (+ ?x1737 (+ 0 (div ?x659 12))) 1) 100)) (div (- (+ ?x1737 (+ 0 (div ?x659 12))) 1) 400))))
 (let ((?x790 (+ (+ (- (+ (+ ?x563 ?x781) (- ?x3299 1)) 730179) 0) 730179)))
 (let ((?x385 (mod ?x790 146097)))
 (let ((?x1477 (div ?x385 36524)))
 (let ((?x772 (ite (<= 4 ?x1477) 3 ?x1477)))
 (let ((?x650 (- ?x385 (* ?x772 36524))))
 (let ((?x615 (mod ?x650 1461)))
 (let ((?x454 (div ?x615 365)))
 (let ((?x3364 (ite (<= 4 ?x454) 3 ?x454)))
 (let ((?x688 (+ (+ (* (div ?x790 146097) 400) (* ?x772 100)) (* (div ?x650 1461) 4))))
 (let ((?x3086 (+ (+ ?x688 ?x3364) 1)))
 (let (($x837 (or (and (= (mod ?x3086 4) 0) (and (distinct (mod ?x3086 100) 0) true)) (= (mod ?x3086 400) 0))))
 (let ((?x685 (- ?x615 (* ?x3364 365))))
 (let ((?x1118 (ite $x837 31 31)))
 (let (($x3419 (>= ?x685 ?x1118)))
 (let ((?x534 (ite $x3419 (+ (- ?x685 ?x1118) 1) (+ (- ?x685 (ite $x837 0 0)) 1))))
 (let ((?x737 (ite $x837 60 59)))
 (let (($x3393 (>= ?x685 ?x737)))
 (let ((?x830 (ite $x837 91 90)))
 (let (($x348 (>= ?x685 ?x830)))
 (let ((?x556 (ite $x348 (+ (- ?x685 ?x830) 1) (ite $x3393 (+ (- ?x685 ?x737) 1) ?x534))))
 (let ((?x1807 (ite $x837 121 120)))
 (let (($x723 (>= ?x685 ?x1807)))
 (let ((?x242 (ite $x837 152 151)))
 (let (($x3669 (>= ?x685 ?x242)))
 (let ((?x816 (ite $x3669 (+ (- ?x685 ?x242) 1) (ite $x723 (+ (- ?x685 ?x1807) 1) ?x556))))
 (let ((?x919 (ite $x837 182 181)))
 (let (($x481 (>= ?x685 ?x919)))
 (let ((?x281 (ite $x837 213 212)))
 (let (($x438 (>= ?x685 ?x281)))
 (let ((?x388 (ite $x438 (+ (- ?x685 ?x281) 1) (ite $x481 (+ (- ?x685 ?x919) 1) ?x816))))
 (let ((?x564 (ite $x837 244 243)))
 (let (($x3670 (>= ?x685 ?x564)))
 (let ((?x404 (ite $x837 274 273)))
 (let (($x1429 (>= ?x685 ?x404)))
 (let ((?x2296 (ite $x1429 (+ (- ?x685 ?x404) 1) (ite $x3670 (+ (- ?x685 ?x564) 1) ?x388))))
 (let ((?x576 (ite $x837 305 304)))
 (let (($x840 (>= ?x685 ?x576)))
 (let ((?x1078 (ite $x837 335 334)))
 (let (($x637 (>= ?x685 ?x1078)))
 (let ((?x960 (ite $x637 (+ (- ?x685 ?x1078) 1) (ite $x840 (+ (- ?x685 ?x576) 1) ?x2296))))
 (let (($x879 (= 0 0)))
 (let ((?x581 (ite $x879 ?x3299 ?x960)))
 (= x_plus_day ?x581))))))))))))))))))))))))))))))))))))))))))))))))))))))))))))))))))))))))))))))))))))))))))))))))))))))))))
(assert
 (>= x_plus_plus_epoch (- 36584)))
(assert
 (<= x_plus_plus_epoch 36829))
(assert
 (= x_plus_plus_epoch (+ x_plus_epoch 15)))
(assert
 (= x_plus_plus_epoch y_epoch))
(assert
 (>= y_epoch 8492))
(check-sat)
